files/upTests/__issues/120-funcToSet-matrix1d/0002.eprime.solution
language ESSENCE' 1.0
$ minion Nodes: 5
$ minion TotalTime: 0.000468
$ Savile Row TotalTime: 0.162
letting fs_Matrix1D_SetExplicit_tuple2 be [[12, 13;int(1..2)], 
[12, 13;int(1..2)];int(1..2)]
letting fs_Matrix1D_SetExplicit_tuple1 be [[10, 10;int(1..2)], 
[10, 10;int(1..2)];int(1..2)]
